NAME: R12-280618-030026.tsp
TYPE: TSP
COMMENT: Random data
DIMENSION: 12
EDGE_WEIGHT_TYPE: EXPLICIT
EDGE_WEIGHT_FORMAT: FULL_MATRIX
DISPLAY_DATA_TYPE: NO_DISPLAY
EDGE_WEIGHT_SECTION
 0 96 23 14 21 48 57 83 19 20 28 46 
78  0 93 21 52 24 30 50 13 74 96 89 
70 87  0 17 52 26 82 90 97 30 46 80 
73 20 59  0 28 71 84 64 33 72 82 37 
72 96 91 63  0 20 64 23 43  6 79  0 
 6 53 26  3 96  0 30  1 29 23 98  0 
97 19  0 93 95 58  0 66 49 41 23  6 
32 14 21 61 63 62 26  0 73 86 39  1 
72 13  6  2 67 88 33 32  0 43 59 39 
72 98 71 62 26 68 65 77 57  0 37 77 
 0 20 11 82 35 67 38  3 49 12  0 61 
96 47 87 86 93 90 78 15  9 80 47  0 
EOF